single_objective/SL-DABL/OP/problems/op/OPLib-master/instances/gen1/rat195-gen1-50.oplib
NAME : rat195
COMMENT : Rattled grid (Pulleyblank)
TYPE : OP
DIMENSION : 195
COST_LIMIT : 1162
EDGE_WEIGHT_TYPE : EUC_2D
NODE_COORD_SECTION
1 3 12
2 17 12
3 23 9
4 34 11
5 47 11
6 54 12
7 66 16
8 75 7
9 86 6
10 94 8
11 107 9
12 115 14
13 123 15
14 3 32
15 15 32
16 26 34
17 33 34
18 42 34
19 53 25
20 64 32
21 74 32
22 85 34
23 95 28
24 104 25
25 113 31
26 125 34
27 3 48
28 15 46
29 26 50
30 36 54
31 48 50
32 54 46
33 64 54
34 75 44
35 88 49
36 98 50
37 103 54
38 115 47
39 127 49
40 6 75
41 15 75
42 27 73
43 36 73
44 47 68
45 54 72
46 66 68
47 74 67
48 85 65
49 94 74
50 107 65
51 117 65
52 125 68
53 6 84
54 13 95
55 25 94
56 37 84
57 47 87
58 53 95
59 63 86
60 77 93
61 83 89
62 94 95
63 103 92
64 115 95
65 123 93
66 7 114
67 15 111
68 24 112
69 36 108
70 43 112
71 56 105
72 64 112
73 73 112
74 86 107
75 98 108
76 104 113
77 117 115
78 126 109
79 6 127
80 17 125
81 27 134
82 35 126
83 44 131
84 54 132
85 63 124
86 77 127
87 82 134
88 96 128
89 103 126
90 116 130
91 126 134
92 7 152
93 16 147
94 24 153
95 35 151
96 45 154
97 55 146
98 63 155
99 75 151
100 87 154
101 93 156
102 104 151
103 117 153
104 127 148
105 3 164
106 16 172
107 25 165
108 35 175
109 44 169
110 53 174
111 64 168
112 76 171
113 87 173
114 95 174
115 106 168
116 114 169
117 125 169
118 3 190
119 16 188
120 25 195
121 37 186
122 44 189
123 54 194
124 66 192
125 77 192
126 85 188
127 93 185
128 106 192
129 113 193
130 125 195
131 5 207
132 15 213
133 24 209
134 33 214
135 43 206
136 53 211
137 64 213
138 74 212
139 84 212
140 94 209
141 104 215
142 115 206
143 127 209
144 6 229
145 13 227
146 26 235
147 34 225
148 43 227
149 55 225
150 67 229
151 75 234
152 87 230
153 95 235
154 105 228
155 117 225
156 127 230
157 6 249
158 15 246
159 26 255
160 33 246
161 47 248
162 58 252
163 65 248
164 73 247
165 87 249
166 94 245
167 104 256
168 113 246
169 125 253
170 5 266
171 16 274
172 24 267
173 37 266
174 45 267
175 54 266
176 67 267
177 74 265
178 87 264
179 95 271
180 106 264
181 116 271
182 127 273
183 7 287
184 17 294
185 23 287
186 33 284
187 43 288
188 53 295
189 67 288
190 73 286
191 87 293
192 94 284
193 104 291
194 114 294
195 127 290
NODE_SCORE_SECTION
1 1
2 1
3 1
4 1
5 1
6 1
7 1
8 1
9 1
10 1
11 1
12 1
13 1
14 1
15 1
16 1
17 1
18 1
19 1
20 1
21 1
22 1
23 1
24 1
25 1
26 1
27 1
28 1
29 1
30 1
31 1
32 1
33 1
34 1
35 1
36 1
37 1
38 1
39 1
40 1
41 1
42 1
43 1
44 1
45 1
46 1
47 1
48 1
49 1
50 1
51 1
52 1
53 1
54 1
55 1
56 1
57 1
58 1
59 1
60 1
61 1
62 1
63 1
64 1
65 1
66 1
67 1
68 1
69 1
70 1
71 1
72 1
73 1
74 1
75 1
76 1
77 1
78 1
79 1
80 1
81 1
82 1
83 1
84 1
85 1
86 1
87 1
88 1
89 1
90 1
91 1
92 1
93 1
94 1
95 1
96 1
97 1
98 1
99 1
100 1
101 1
102 1
103 1
104 1
105 1
106 1
107 1
108 1
109 1
110 1
111 1
112 1
113 1
114 1
115 1
116 1
117 1
118 1
119 1
120 1
121 1
122 1
123 1
124 1
125 1
126 1
127 1
128 1
129 1
130 1
131 1
132 1
133 1
134 1
135 1
136 1
137 1
138 1
139 1
140 1
141 1
142 1
143 1
144 1
145 1
146 1
147 1
148 1
149 1
150 1
151 1
152 1
153 1
154 1
155 1
156 1
157 1
158 1
159 1
160 1
161 1
162 1
163 1
164 1
165 1
166 1
167 1
168 1
169 1
170 1
171 1
172 1
173 1
174 1
175 1
176 1
177 1
178 1
179 1
180 1
181 1
182 1
183 1
184 1
185 1
186 1
187 1
188 1
189 1
190 1
191 1
192 1
193 1
194 1
195 1
DEPOT_SECTION
1
-1
EOF
