single_objective/SL-DABL/OP/problems/op/OPLib-master/solutions/ea4op/gen1/rat195-gen1-50.sol
NAME : rat195
TYPE : OP
DIMENSION : 195
COST_LIMIT : 1162
ROUTE_NODES : 99
ROUTE_SCORE : 99
ROUTE_COST : 1162
NODE_SEQUENCE_SECTION
1
14
15
16
17
29
30
31
32
33
47
46
45
44
43
56
57
58
71
70
69
82
83
84
97
96
95
94
107
106
119
120
133
132
145
146
160
159
172
173
174
175
162
163
164
165
166
153
154
141
140
139
138
137
136
123
122
121
108
109
110
111
112
113
114
115
116
103
104
91
90
89
88
87
86
73
74
62
63
64
65
52
51
50
37
36
38
25
12
11
10
9
8
7
6
5
4
3
2
-1
DEPOT_SECTION
1
-1
EOF
